318026.0
2429
1 2 3 4 10 11 15 17 18 20 22 23 25 27 31 32 33 34 35 36 38 39 41 43 44 46 49 50 51 52 53 54 56 59 61 63 70 73 75 77 78 79 82 83 84 85 86 88 89 91 93 95 97 98 100 102 104 107 110 112 113 114 115 116 117 118 119 120 121 123 124 126 127 128 130 132 133 137 139 141 143 144 145 148 150 151 152 159 160 162 163 164 166 167 169 171 172 173 175 176 180 181 182 190 192 195 197 199 